(set-logic HORN)
(declare-fun state (Int Int Int Int Bool Int (Array Int Int) Int (Array Int Int) Bool Bool Int Int (Array Int Int) Int (Array Int Int) Int Int) Bool)
(assert (forall ((|.x.14| Int) (|main@%.12.i1_0_0| Int) (|main@%.1.i2_0_0| Int) (|main@%_3_0_0| Int) (|main@%assume.flag.1_0_0| Bool) (|main@%_6_0_0| Int) (|main@%shadow.mem.1_0_0| (Array Int Int)) (|main@%_7_0_0| Int) (|main@%shadow.mem1.1_0_0| (Array Int Int)) (|main@%_5_0_0| Bool) (|main@%_8_0_0| Bool) (|@nd_char_0_0| Int) (|main@%.01.i3_0_0| Int) (|main@%shadow.mem1.0_0_0| (Array Int Int)) (|main@%.0.i4_0_0| Int) (|main@%shadow.mem.0_0_0| (Array Int Int)) (|@nd_0_0| Int) (|main@%_12_0| Int) (|.x.21| Int) (|.x.22| Int) (|main@%.01.i3_2| Int) (|main@%.0.i4_2| Int) (|.x.15| Int) (|main@%_8_1| Bool) (|.x.16| Int) (|.x.17| Int) (|.x.18| Bool) (|.x.19| (Array Int Int)) (|.x.20| (Array Int Int)) (|main@%_5_1| Bool) (|main@%shadow.mem1.0_2| (Array Int Int)) (|main@%shadow.mem.0_2| (Array Int Int)) (|main@%_3_1| Int) (|main@%_6_1| Int) (|main@%_7_1| Int) (|.xtv.1| Int)) (=> (= .x.14 0) (state |.x.14| |main@%.12.i1_0_0| |main@%.1.i2_0_0| |main@%_3_0_0| |main@%assume.flag.1_0_0| |main@%_6_0_0| |main@%shadow.mem.1_0_0| |main@%_7_0_0| |main@%shadow.mem1.1_0_0| |main@%_5_0_0| |main@%_8_0_0| |@nd_char_0_0| |main@%.01.i3_0_0| |main@%shadow.mem1.0_0_0| |main@%.0.i4_0_0| |main@%shadow.mem.0_0_0| |@nd_0_0| |main@%_12_0|))))
(assert (forall ((|.x.14| Int) (|main@%.12.i1_0_0| Int) (|main@%.1.i2_0_0| Int) (|main@%_3_0_0| Int) (|main@%assume.flag.1_0_0| Bool) (|main@%_6_0_0| Int) (|main@%shadow.mem.1_0_0| (Array Int Int)) (|main@%_7_0_0| Int) (|main@%shadow.mem1.1_0_0| (Array Int Int)) (|main@%_5_0_0| Bool) (|main@%_8_0_0| Bool) (|@nd_char_0_0| Int) (|main@%.01.i3_0_0| Int) (|main@%shadow.mem1.0_0_0| (Array Int Int)) (|main@%.0.i4_0_0| Int) (|main@%shadow.mem.0_0_0| (Array Int Int)) (|@nd_0_0| Int) (|main@%_12_0| Int) (|.x.21| Int) (|.x.22| Int) (|main@%.01.i3_2| Int) (|main@%.0.i4_2| Int) (|.x.15| Int) (|main@%_8_1| Bool) (|.x.16| Int) (|.x.17| Int) (|.x.18| Bool) (|.x.19| (Array Int Int)) (|.x.20| (Array Int Int)) (|main@%_5_1| Bool) (|main@%shadow.mem1.0_2| (Array Int Int)) (|main@%shadow.mem.0_2| (Array Int Int)) (|main@%_3_1| Int) (|main@%_6_1| Int) (|main@%_7_1| Int) (|.xtv.1| Int)) (=> (and (state |.x.14| |main@%.12.i1_0_0| |main@%.1.i2_0_0| |main@%_3_0_0| |main@%assume.flag.1_0_0| |main@%_6_0_0| |main@%shadow.mem.1_0_0| |main@%_7_0_0| |main@%shadow.mem1.1_0_0| |main@%_5_0_0| |main@%_8_0_0| |@nd_char_0_0| |main@%.01.i3_0_0| |main@%shadow.mem1.0_0_0| |main@%.0.i4_0_0| |main@%shadow.mem.0_0_0| |@nd_0_0| |main@%_12_0|) (let ((.def_41 (= .x.15 1))) (let ((.def_45 (= main@%.12.i1_0_0 .x.16))) (let ((.def_48 (= main@%.1.i2_0_0 .x.17))) (let ((.def_51 (= main@%assume.flag.1_0_0 .x.18))) (let ((.def_54 (= main@%shadow.mem.1_0_0 .x.19))) (let ((.def_57 (= main@%shadow.mem1.1_0_0 .x.20))) (let ((.def_66 (= .x.17 0))) (let ((.def_68 (= .x.16 1))) (let ((.def_71 (= .x.15 2))) (let ((.def_73 (= main@%.01.i3_0_0 main@%.01.i3_2))) (let ((.def_76 (= main@%shadow.mem1.0_0_0 main@%shadow.mem1.0_2))) (let ((.def_78 (= main@%.0.i4_0_0 main@%.0.i4_2))) (let ((.def_81 (= main@%shadow.mem.0_0_0 main@%shadow.mem.0_2))) (let ((.def_112 (store main@%shadow.mem.0_0_0 (+ main@%_6_0_0 main@%.0.i4_0_0) main@%_12_0))) (let ((.def_115 (store main@%shadow.mem1.0_0_0 (+ main@%_7_0_0 main@%.01.i3_0_0) main@%_12_0))) (let ((.def_119 (<= (+ main@%_3_0_0 (* (- 1) main@%.01.i3_0_0)) 3))) (let ((.def_128 (<= main@%_6_0_0 0))) (let ((.def_129 (or (not (<= (+ main@%_6_0_0 main@%.0.i4_0_0) 0)) .def_128))) (let ((.def_133 (<= main@%_7_0_0 0))) (let ((.def_134 (or (not (<= (+ main@%_7_0_0 main@%.01.i3_0_0) 0)) .def_133))) (let ((.def_136 (not .def_133))) (let ((.def_138 (not .def_128))) (let ((.def_145 (= .x.14 1))) (let ((.def_147 (= main@%_3_0_0 main@%_3_1))) (let ((.def_149 (= main@%_6_0_0 main@%_6_1))) (let ((.def_151 (= main@%_7_0_0 main@%_7_1))) (let ((.def_153 (= main@%_5_0_0 main@%_5_1))) (let ((.def_155 (= main@%_8_0_0 main@%_8_1))) (let ((.def_160 (and main@%_5_0_0 main@%_8_0_0))) (let ((.def_181 (or .def_133 (not (<= main@%_7_0_0 (- 1)))))) (let ((.def_186 (= (select .def_115 (+ main@%_7_0_0 1)) (select .def_112 main@%_6_0_0)))) (let ((.def_215 (= .x.15 3))) (let ((.def_230 (not (<= (- 3) (+ main@%.12.i1_0_0 (* (- 1) main@%_3_0_0)))))) (let ((.def_255 (or .def_133 (not (<= 1 (+ (* 3 main@%_6_0_0) (+ (* (- 1) main@%_7_0_0) (* (- 3) main@%_12_0)))))))) (let ((.def_258 (= (+ main@%.1.i2_0_0 (+ main@%_6_0_0 (* (- 1) main@%_12_0))) (- 1)))) (let ((.def_262 (or .def_128 (not (<= main@%_12_0 0))))) (let ((.def_273 (= (select main@%shadow.mem1.1_0_0 (+ (+ (* (- 3) main@%_6_0_0) (+ main@%_7_0_0 (* 3 main@%_12_0))) 1)) (select main@%shadow.mem.1_0_0 main@%_12_0)))) (let ((.def_278 (= .x.14 2))) (and (and (= @nd_char_0_0 .x.21) (= @nd_0_0 .x.22)) (or (or (or (or (or (and (or (and (= main@%.01.i3_2 1) (and (= main@%.0.i4_2 0) (and (and (and (and (and (and .def_41 main@%_8_1) .def_45) .def_48) .def_51) .def_54) .def_57))) (and (and (and (and (and (and (and (and (not main@%_8_1) (= .x.18 (and main@%_8_1 main@%_5_1))) .def_66) .def_68) .def_71) .def_73) .def_76) .def_78) .def_81)) (and (= main@%_5_1 (not (<= main@%_3_1 0))) (and (= .x.14 0) (and (= main@%_8_1 (not (<= main@%_3_1 1))) (and (not (<= main@%_6_1 0)) (not (<= main@%_7_1 0))))))) (and (and (and (and (and (and (and (= (+ main@%.01.i3_0_0 (* (- 1) main@%.01.i3_2)) (- 3)) (and (= (+ main@%.0.i4_0_0 (* (- 1) main@%.0.i4_2)) (- 1)) (and (= main@%shadow.mem.0_2 .def_112) (and (= main@%shadow.mem1.0_2 .def_115) (and (not .def_119) (and (and (and (and (and .def_57 (and .def_54 (and .def_51 (and .def_48 (and .def_41 .def_45))))) .def_129) .def_134) .def_136) .def_138)))))) .def_145) .def_147) .def_149) .def_151) .def_153) .def_155)) (and (= .x.19 .def_112) (and (= .x.20 .def_115) (and (= .x.18 .def_160) (and (and (and .def_155 (and .def_153 (and .def_151 (and .def_149 (and .def_147 (and .def_145 (and .def_119 (and .def_138 (and .def_136 (and .def_134 (and .def_129 (and .def_81 (and .def_78 (and .def_76 (and .def_73 (and .def_71 (and .def_66 .def_68))))))))))))))))) .def_181) .def_186))))) (and (and (not .def_186) (and .def_181 (and .def_155 (and .def_153 (and .def_151 (and .def_149 (and .def_147 (and .def_145 (and .def_119 (and .def_138 (and .def_136 (and .def_134 (and .def_129 (and .def_81 (and .def_78 (and .def_76 (and .def_73 (and .def_57 (and .def_54 (and .def_51 (and .def_48 (and .def_45 .def_160)))))))))))))))))))))) .def_215)) (and (and (= (+ main@%.12.i1_0_0 (* (- 1) .x.16)) (- 3)) (and (= (+ main@%_6_0_0 (+ (* (- 1) main@%_12_0) .x.17)) 0) (and (= .x.18 (and main@%assume.flag.1_0_0 .def_230)) (and (and (and (and (and .def_155 (and .def_153 (and .def_151 (and .def_149 (and .def_147 (and .def_138 (and .def_136 (and .def_81 (and .def_78 (and .def_76 (and .def_73 (and .def_71 (and .def_54 .def_57))))))))))))) .def_255) .def_258) .def_262) .def_273)))) .def_278)) (and (not .def_273) (and .def_278 (and .def_230 (and .def_262 (and .def_258 (and .def_255 (and .def_215 (and .def_155 (and .def_153 (and .def_151 (and .def_149 (and .def_147 (and .def_138 (and .def_136 (and .def_81 (and .def_78 (and .def_76 (and .def_73 (and .def_57 (and .def_54 (and .def_51 (and .def_48 (and main@%assume.flag.1_0_0 .def_45)))))))))))))))))))))))))))))))))))))))))))))))))))))))))))))))) (state |.x.15| |.x.16| |.x.17| |main@%_3_1| |.x.18| |main@%_6_1| |.x.19| |main@%_7_1| |.x.20| |main@%_5_1| |main@%_8_1| |.x.21| |main@%.01.i3_2| |main@%shadow.mem1.0_2| |main@%.0.i4_2| |main@%shadow.mem.0_2| |.x.22| |.xtv.1|))))
(assert (forall ((|.x.14| Int) (|main@%.12.i1_0_0| Int) (|main@%.1.i2_0_0| Int) (|main@%_3_0_0| Int) (|main@%assume.flag.1_0_0| Bool) (|main@%_6_0_0| Int) (|main@%shadow.mem.1_0_0| (Array Int Int)) (|main@%_7_0_0| Int) (|main@%shadow.mem1.1_0_0| (Array Int Int)) (|main@%_5_0_0| Bool) (|main@%_8_0_0| Bool) (|@nd_char_0_0| Int) (|main@%.01.i3_0_0| Int) (|main@%shadow.mem1.0_0_0| (Array Int Int)) (|main@%.0.i4_0_0| Int) (|main@%shadow.mem.0_0_0| (Array Int Int)) (|@nd_0_0| Int) (|main@%_12_0| Int) (|.x.21| Int) (|.x.22| Int) (|main@%.01.i3_2| Int) (|main@%.0.i4_2| Int) (|.x.15| Int) (|main@%_8_1| Bool) (|.x.16| Int) (|.x.17| Int) (|.x.18| Bool) (|.x.19| (Array Int Int)) (|.x.20| (Array Int Int)) (|main@%_5_1| Bool) (|main@%shadow.mem1.0_2| (Array Int Int)) (|main@%shadow.mem.0_2| (Array Int Int)) (|main@%_3_1| Int) (|main@%_6_1| Int) (|main@%_7_1| Int) (|.xtv.1| Int)) (=> (state |.x.14| |main@%.12.i1_0_0| |main@%.1.i2_0_0| |main@%_3_0_0| |main@%assume.flag.1_0_0| |main@%_6_0_0| |main@%shadow.mem.1_0_0| |main@%_7_0_0| |main@%shadow.mem1.1_0_0| |main@%_5_0_0| |main@%_8_0_0| |@nd_char_0_0| |main@%.01.i3_0_0| |main@%shadow.mem1.0_0_0| |main@%.0.i4_0_0| |main@%shadow.mem.0_0_0| |@nd_0_0| |main@%_12_0|) (not (= .x.14 3)))))
(check-sat)
